# Objective value = 95602
x66 0
x67 1
x68 0
x69 0
x70 1
x71 0
x72 0
x73 1
x74 0
x75 1
x76 0
x77 1
x78 0
x79 1
x80 1
x81 0
x82 1
x83 0
x84 1
x85 1
x86 1
x87 1
x88 0
x89 1
x90 0
x91 0
x92 0
x93 0
x94 0
x95 1
x96 0
x97 1
x98 1
x99 1
x100 1
x101 0
x102 0
x103 1
x104 0
x105 1
x106 1
x107 1
x108 1
x109 0
x110 1
x111 0
x112 1
x113 0
x114 1
x115 1
x116 1
x117 1
x118 0
x119 1
x120 1
x121 0
x122 1
x123 0
x124 1
x125 1
x126 1
x127 1
x128 0
x129 1
x130 1
x131 1
x132 1
x133 0
x134 1
x135 0
x136 0
x137 0
x138 0
x139 1
x140 0
x141 0
x142 0
x143 0
x144 1
x145 0
x146 1
x147 0
x148 0
x149 0
x150 0
x151 1
x152 0
x153 0
x154 0
x155 0
x156 1
x157 0
x158 1
x159 0
x160 1
x161 1
x162 1
x163 1
x164 0
x165 1
x166 1
x167 1
x168 1
x169 0
x170 0
x171 0
x172 1
x173 0
x174 1
x175 1
x176 1
x177 1
x178 0
x179 1
x180 1
x181 1
x182 1
x183 0
x184 0
x185 1
x186 0
x187 1
x188 0
x189 1
x190 1
x191 1
x192 1
x193 0
x194 1
x195 1
x196 1
x197 1
x198 0
x199 0
x200 1
x201 1
x202 0
x203 1
x204 0
x205 1
x206 1
x207 1
x208 0
x209 0
x210 1
x211 0
x212 1
x213 1
x214 1
x215 1
x216 1
x217 0
x218 1
x219 0
x220 1
x221 1
x222 1
x223 1
x224 1
x225 1
x226 1
x227 0
x228 1
x229 0
x230 0
x231 1
x232 0
x233 0
x234 0
x235 0
x236 1
x237 0
x238 0
x239 1
x240 0
x241 0
x242 1
x243 0
x244 0
x245 0
x246 1
x247 0
x248 1
x249 1
x250 0
x251 1
x252 1
x253 1
x254 1
x255 1
x256 1
x257 0
x258 0
x259 0
x260 1
x261 1
x262 0
x263 1
x264 1
x265 1
x266 1
x267 1
x268 1
x269 0
x270 0
x271 1
x272 0
x273 1
x274 1
x275 0
x276 1
x277 0
x278 1
x279 1
x280 1
x281 1
x282 0
x283 0
x284 1
x285 1
x286 0
x287 1
x288 1
x289 1
x290 1
x291 1
x292 0
x293 1
x294 1
x295 1
x296 0
x297 0
x298 1
x299 1
x300 1
x301 1
x302 1
x303 0
x304 0
x305 0
x306 0
x307 1
x308 0
x309 0
x310 0
x311 1
x312 1
x313 0
x314 0
x315 0
x316 0
x317 0
x318 1
x319 0
x320 1
x321 1
x322 1
x323 0
x324 1
x325 1
x326 1
x327 0
x328 0
x329 1
x330 1
x331 1
x332 1
x333 0
x334 0
x335 1
x336 1
x337 1
x338 1
x339 1
x340 0
x341 1
x342 1
x343 1
x344 0
x345 0
x346 1
x347 1
x348 1
x349 1
x350 0
x351 1
x352 0
x353 1
x354 1
x355 0
x356 1
x357 1
x358 1
x359 1
x360 1
x361 1
x362 0
x363 0
x364 1
x365 1
x366 1
x367 1
x368 0
x369 1
x370 1
x371 0
x372 0
x373 1
x374 0
x375 1
x376 1
x377 1
x378 1
x379 1
x380 1
x381 0
x382 0
x383 1
x384 1
x385 1
x386 1
x387 0
x388 1
x389 1
x390 1
x391 1
x392 0
x393 1
x394 1
x395 0
x396 0
x397 0
x398 0
x399 0
x400 0
x401 1
x402 1
x403 0
x404 0
x405 0
x406 0
x407 1
x408 0
x409 0
x410 0
x411 0
x412 0
x413 1
x414 1
x415 0
x416 1
x417 1
x418 1
x419 1
x420 1
x421 1
x422 0
x423 0
x424 1
x425 1
x426 1
x427 1
x428 0
x429 1
x430 1
x431 1
x432 1
x433 0
x434 0
x435 1
x436 0
x437 1
x438 1
x439 1
x440 1
x441 1
x442 1
x443 0
x444 0
x445 0
x446 1
x447 0
x448 1
x449 1
x450 1
x451 1
x452 1
x453 1
x454 0
x455 1
x456 1
x457 1
x458 0
x459 1
x460 0
x461 0
x462 1
x463 0
x464 0
x465 0
x466 1
x467 0
x468 0
x469 0
x470 0
x471 1
x472 0
x473 1
x474 1
x475 1
x476 1
x477 1
x478 1
x479 0
x480 1
x481 1
x482 1
x483 0
x484 0
x485 1
x486 1
x487 1
x488 0
x489 1
x490 1
x491 0
x492 1
x493 1
x494 1
x495 1
x496 1
x497 0
x498 1
x499 1
x500 1
x501 0
x502 0
x503 1
x504 0
x505 0
x506 1
x507 0
x508 0
x509 0
x510 0
x511 0
x512 1
x513 0
x514 0
x515 0
x516 1
x517 1
x518 1
x519 0
x520 1
x521 1
x522 0
x523 1
x524 1
x525 1
x526 1
x527 1
x528 0
x529 1
x530 1
x531 0
x532 0
x533 1
x534 1
x535 1
x536 0
x537 1
x538 0
x539 0
x540 1
x541 1
x542 1
x543 1
x544 1
x545 0
x546 1
x547 1
x548 0
x549 1
x550 1
x551 0
x552 0
x553 0
x554 1
x555 1
x556 0
x557 1
x558 0
x559 0
x560 0
x561 0
x562 0
x563 1
x564 0
x565 0
x566 1
x567 0
x568 0
x569 0
x570 1
x571 1
x572 1
x573 0
x574 1
x575 1
x576 0
x577 1
x578 1
x579 1
x580 1
x581 1
x582 0
x583 1
x584 1
x585 0
x586 1
x587 1
x588 0
x589 0
x590 1
x591 1
x592 1
x593 0
x594 1
x595 1
x596 0
x597 1
x598 1
x599 0
x600 1
x601 1
x602 0
x603 1
x604 1
x605 0
x606 1
x607 1
x608 0
x609 1
x610 0
x611 1
x612 1
x613 1
x614 0
x615 1
x616 1
x617 0
x618 1
x619 1
x620 1
x621 1
x622 1
x623 0
x624 1
x625 1
x626 0
x627 1
x628 1
x629 0
x630 1
x631 1
x632 0
x633 1
x634 0
x635 1
x636 1
x637 1
x638 1
x639 1
x640 1
x641 0
x642 1
x643 1
x644 1
x645 0
x646 1
x647 1
x648 0
x649 1
x650 1
x651 0
x652 1
x653 1
x654 1
x655 0
x656 1
x657 0
x658 1
x659 1
x660 1
x661 0
x662 1
x663 1
x664 0
x665 1
x666 1
x667 1
x668 0
x669 1
x670 1
x671 0
x672 1
x673 1
x674 0
x675 1
x676 1
x677 1
x678 1
x679 0
x680 1
x681 0
x682 1
x683 1
x684 1
x685 1
x686 1
x687 1
x688 0
x689 1
x690 1
x691 1
x692 0
x693 1
x694 1
x695 0
x696 1
x697 1
x698 0
x699 1
x700 1
x701 1
x702 1
x703 1
x704 1
x705 1
x706 1
x707 0
x708 0
x709 0
x710 0
x711 0
x712 0
x713 1
x714 0
x715 0
x716 0
x717 1
x718 0
x719 0
x720 1
x721 0
x722 0
x723 1
x724 0
x725 0
x726 0
x727 0
x728 0
x729 0
x730 1
x731 0
x732 1
x733 0
x734 0
x735 0
x736 0
x737 0
x738 0
x739 1
x740 1
x741 0
x742 0
x743 1
x744 0
x745 1
x746 0
x747 0
x748 1
x749 0
x750 1
x751 1
x752 1
x753 1
x754 1
x755 1
x756 0
x757 1
x758 1
x759 1
x760 0
x761 1
x762 1
x763 1
x764 0
x765 0
x766 1
x767 0
x768 1
x769 1
x770 0
x771 1
x772 1
x773 1
x774 0
x775 1
x776 1
x777 1
x778 0
x779 1
x780 1
x781 1
x782 0
x783 1
x784 0
x785 1
x786 0
x787 1
x788 1
x789 1
x790 1
x791 1
x792 1
x793 0
x794 1
x795 1
x796 1
x797 0
x798 1
x799 1
x800 0
x801 0
x802 1
x803 1
x804 0
x805 1
x806 1
x807 1
x808 0
x809 1
x810 1
x811 0
x812 1
x813 1
x814 1
x815 1
x816 0
x817 1
x818 1
x819 0
x820 1
x821 0
x822 1
x823 1
x824 1
x825 0
x826 0
x827 1
x828 1
x829 0
x830 1
x831 1
x832 0
x833 1
x834 1
x835 1
x836 1
x837 0
x838 1
x839 1
x840 1
x841 1
x842 0
x843 1
x844 1
x845 1
x846 1
x847 0
x848 1
x849 1
x850 1
x851 0
x852 1
x853 1
x854 0
x855 1
x856 1
x857 1
x858 1
x859 0
x860 1
x861 1
x862 1
x863 1
x864 0
x865 1
x866 1
x867 1
x868 1
x869 1
x870 1
x871 0
x872 0
x873 0
x874 1
x875 0
x876 1
x877 1
x878 0
x879 0
x880 0
x881 0
x882 1
x883 0
x884 0
x885 0
x886 1
x887 1
x888 0
x889 0
x890 0
x891 0
x892 0
x893 0
x894 0
x895 1
x896 1
x897 1
x898 0
x899 0
x900 1
x901 0
x902 1
x903 1
x904 1
x905 1
x906 1
x907 0
x908 1
x909 1
x910 1
x911 0
x912 1
x913 1
x914 1
x915 1
x916 1
x917 1
x918 0
x919 0
x920 1
x921 1
x922 1
x923 0
x924 1
x925 1
x926 0
x927 1
x928 1
x929 1
x930 1
x931 0
x932 0
x933 1
x934 1
x935 1
x936 0
x937 1
x938 1
x939 1
x940 1
x941 1
x942 1
x943 0
x944 1
x945 1
x946 0
x947 0
x948 0
x949 1
x950 0
x951 0
x952 1
x953 0
x954 0
x955 1
x956 1
x957 0
x958 1
x959 0
x960 0
x961 0
x962 1
x963 0
x964 0
x965 0
x966 0
x967 0
x968 0
x969 1
x970 0
x971 0
x972 0
x973 1
x974 1
x975 1
x976 0
x977 1
x978 1
x979 0
x980 1
x981 1
x982 1
x983 1
x984 1
x985 0
x986 1
x987 1
x988 1
x989 0
x990 1
x991 1
x992 1
x993 1
x994 1
x995 1
x996 0
x997 1
x998 1
x999 0
x1000 0
x1001 1
x1002 0
x1003 1
x1004 1
x1005 1
x1006 1
x1007 1
x1008 1
x1009 0
x1010 1
x1011 1
x1012 1
x1013 1
x1014 1
x1015 1
x1016 0
x1017 0
x1018 1
x1019 1
x1020 1
x1021 1
x1022 1
x1023 1
x1024 0
x1025 1
x1026 1
x1027 0
x1028 1
x1029 1
x1030 0
x1031 1
x1032 0
x1033 0
x1034 0
x1035 1
x1036 0
x1037 0
x1038 1
x1039 0
x1040 0
x1041 1
x1042 0
x1043 0
x1044 0
x1045 1
x1046 1
x1047 0
x1048 0
x1049 0
x1050 0
x1051 0
x1052 0
x1053 1
x1054 0
x1055 0
x1056 1
x1057 0
x1058 0
x1059 0
x1060 1
x1061 0
x1062 1
x1063 1
x1064 1
x1065 1
x1066 1
x1067 1
x1068 0
x1069 1
x1070 0
x1071 1
x1072 1
x1073 1
x1074 1
x1075 0
x1076 0
x1077 1
x1078 1
x1079 1
x1080 1
x1081 1
x1082 1
x1083 0
x1084 1
x1085 1
x1086 0
x1087 1
x1088 1
x1089 0
x1090 0
x1091 0
x1092 0
x1093 1
x1094 1
x1095 1
x1096 1
x1097 1
x1098 1
x1099 0
x1100 1
x1101 1
x1102 1
x1103 1
x1104 1
x1105 1
x1106 0
x1107 0
x1108 1
x1109 1
x1110 1
x1111 1
x1112 1
x1113 1
x1114 0
x1115 1
x1116 1
x1117 0
x1118 1
x1119 1
x1120 0
x1121 1
x1 1
x2 0
x3 1
x4 0
x5 0
x6 0
x7 0
x8 1
x9 0
x10 0
x11 0
x12 0
x13 1
x14 1
x15 0
x16 0
x17 0
x18 0
x19 0
x20 0
x21 1
x22 1
x23 0
x24 0
x25 0
x26 0
x27 1
x28 0
x29 0
x30 0
x31 0
x32 1
x33 0
x34 0
x35 0
x36 1
x37 0
x38 0
x39 1
x40 0
x41 0
x42 1
x43 0
x44 0
x45 0
x46 0
x47 0
x48 0
x49 1
x50 1
x51 0
x52 0
x53 0
x54 0
x55 0
x56 0
x57 1
x58 0
x59 0
x60 1
x61 0
x62 0
x63 1
x64 0
x65 0
